language ESSENCE' 1.0

letting jobs = 102
letting horizon = 783
letting resourcesRenew = 2
letting resourcesNonrenew = 2
letting resourceLimits = [11, 11, 558, 534]
letting successors = [[2, 3, 4, 5, 9, 12, 13, 14], [33, 23, 21, 15, 8], [15, 11, 10, 6], [27, 17, 11, 7], [11, 10], [32, 27, 25, 22, 21, 20, 19], [33, 32, 25, 22, 20, 16], [27, 22, 20, 18, 16], [32, 27, 25, 21, 20, 19], [27, 25, 24, 21, 18], [36, 33, 20, 19], [36, 35, 33, 29, 27, 26, 24], [37, 36, 33, 32, 29, 26, 25], [32, 29, 24, 21], [27, 25, 18], [36, 24, 19], [29, 25, 21], [46, 37, 36, 35, 34, 32, 29, 28], [37, 35, 30, 29, 28, 26], [29, 26, 24], [37, 36, 35, 26], [37, 30, 28, 26], [48, 46, 37, 35, 34, 31, 30], [46, 37, 34, 30, 28], [46, 35, 34, 30, 28], [55, 48, 46, 44, 40, 34, 31], [48, 37, 31, 30], [55, 48, 44, 38, 31], [55, 40, 31], [55, 49, 47, 42, 40, 39, 38], [53, 52, 47, 43, 42, 41, 39], [55, 53, 43, 41, 38], [54, 49, 47, 45, 43, 40], [53, 47, 41, 38], [54, 50, 47, 43, 42, 38], [55, 53, 50, 47, 42, 38], [68, 56, 52, 50, 45, 44], [68, 64, 60, 58, 56, 45], [68, 65, 64, 60, 58, 45], [70, 65, 58, 53, 52, 50], [70, 68, 54, 50, 49], [72, 69, 68, 67, 66, 65, 64, 63, 62, 61, 60, 59], [72, 69, 68, 67, 66, 65, 63, 62, 61, 60, 59, 58], [72, 70, 69, 67, 64, 62, 60, 58, 53], [70, 61, 57, 51], [70, 64, 53, 51], [69, 66, 64, 51], [72, 71, 70, 68, 67, 65, 62, 59], [74, 72, 69, 67, 66, 61, 59], [72, 71, 69, 67, 66, 64, 59], [74, 72, 71, 67, 62, 59], [72, 71, 69, 67, 62, 59], [88, 74, 66, 63, 61], [74, 67, 64, 63, 62], [72, 67, 64, 59], [75, 72, 71, 69, 67, 65], [75, 71, 69, 66, 63], [92, 84, 83, 82, 78, 77, 76, 75, 71], [92, 86, 84, 80, 77, 76, 73], [92, 86, 81, 77, 76, 75, 73], [92, 84, 83, 78, 75, 71], [92, 88, 86, 84, 83, 82, 78, 77, 75], [91, 87, 86, 84, 82, 80, 79, 78], [86, 84, 83, 82, 81, 78, 75], [100, 99, 88, 84, 83, 82, 81, 77], [100, 86, 84, 83, 82, 77, 76], [92, 89, 83, 80, 76], [88, 84, 83, 77, 74], [100, 97, 92, 91, 88, 87, 84, 81], [100, 97, 92, 91, 88, 85, 84, 81], [101, 97, 91, 89, 86, 85, 80], [100, 99, 98, 90, 87, 85, 84, 82], [100, 97, 91, 89, 88, 83], [100, 99, 98, 97, 96, 89, 87, 85], [97, 90, 79], [101, 99, 98, 97, 96, 87, 85], [101, 97, 90, 89, 85], [100, 97, 96, 89, 85], [100, 99, 89, 85], [100, 81], [98, 94, 93, 90], [97, 94, 93, 89], [96, 95, 87], [101, 94, 89], [95, 94, 93], [98, 95, 93], [94, 93], [98, 96], [95], [96], [99], [93], [102], [102], [102], [102], [102], [102], [102], [102], [102], []]
letting durations = [[0], [1, 8, 10], [4, 5, 10], [1, 1, 2], [1, 7, 8], [5, 10, 10], [1, 5, 6], [5, 6, 8], [5, 9, 10], [1, 6, 7], [1, 7, 8], [1, 2, 6], [4, 5, 7], [3, 6, 10], [1, 2, 9], [1, 4, 7], [4, 9, 10], [2, 5, 7], [3, 6, 7], [4, 5, 9], [4, 7, 8], [4, 6, 7], [3, 9, 10], [6, 7, 8], [4, 5, 10], [1, 2, 4], [1, 2, 4], [6, 9, 9], [1, 3, 8], [3, 4, 6], [2, 5, 10], [3, 4, 9], [4, 4, 8], [1, 7, 9], [1, 4, 5], [3, 4, 8], [5, 7, 8], [2, 3, 7], [1, 3, 4], [1, 1, 3], [4, 5, 10], [3, 7, 9], [1, 2, 4], [2, 6, 9], [2, 5, 8], [3, 4, 4], [3, 8, 9], [1, 7, 9], [1, 6, 9], [9, 9, 10], [4, 7, 7], [3, 3, 10], [4, 4, 9], [4, 7, 10], [2, 5, 8], [2, 3, 10], [4, 6, 7], [6, 6, 7], [4, 4, 5], [3, 8, 9], [1, 6, 8], [1, 4, 5], [3, 8, 10], [2, 3, 4], [2, 4, 6], [2, 4, 7], [2, 7, 10], [2, 4, 8], [1, 4, 9], [4, 6, 7], [3, 5, 6], [3, 4, 9], [1, 3, 4], [3, 6, 10], [3, 4, 9], [2, 3, 8], [1, 9, 10], [3, 7, 9], [2, 3, 10], [5, 6, 6], [1, 2, 5], [3, 4, 9], [2, 3, 8], [3, 3, 8], [2, 2, 4], [6, 6, 8], [3, 6, 9], [4, 5, 6], [3, 4, 10], [1, 6, 7], [2, 7, 9], [2, 4, 9], [3, 5, 9], [4, 6, 6], [3, 4, 7], [1, 6, 9], [5, 6, 10], [6, 7, 8], [2, 4, 9], [4, 6, 9], [3, 5, 10], [0]]
letting resourceUsage = [[[0, 0, 0, 0]], [[0, 3, 9, 5], [0, 3, 7, 4], [3, 0, 4, 4]], [[2, 0, 9, 2], [0, 2, 8, 2], [0, 1, 8, 2]], [[5, 0, 5, 9], [5, 0, 4, 10], [5, 0, 4, 9]], [[0, 2, 6, 6], [0, 2, 5, 4], [1, 0, 4, 3]], [[4, 0, 8, 8], [4, 0, 6, 6], [0, 3, 6, 5]], [[2, 0, 7, 7], [1, 0, 4, 7], [0, 1, 1, 7]], [[4, 0, 9, 3], [3, 0, 9, 3], [2, 0, 9, 1]], [[4, 0, 10, 9], [0, 3, 7, 6], [4, 0, 6, 5]], [[4, 0, 3, 9], [0, 2, 2, 7], [3, 0, 1, 7]], [[0, 5, 8, 7], [3, 0, 6, 6], [0, 5, 3, 5]], [[0, 5, 5, 8], [0, 3, 3, 7], [0, 2, 3, 5]], [[0, 4, 5, 5], [0, 3, 5, 2], [3, 0, 5, 1]], [[4, 0, 2, 9], [4, 0, 1, 7], [3, 0, 1, 5]], [[4, 0, 6, 7], [4, 0, 5, 6], [0, 3, 3, 6]], [[5, 0, 9, 2], [0, 2, 9, 2], [0, 2, 9, 1]], [[4, 0, 9, 3], [4, 0, 8, 3], [3, 0, 8, 3]], [[0, 3, 5, 9], [3, 0, 4, 8], [2, 0, 3, 4]], [[0, 3, 9, 8], [1, 0, 8, 7], [1, 0, 8, 5]], [[0, 3, 9, 8], [0, 2, 8, 6], [1, 0, 6, 3]], [[0, 3, 6, 7], [0, 3, 6, 4], [0, 2, 2, 3]], [[0, 1, 6, 6], [0, 1, 6, 5], [0, 1, 6, 3]], [[0, 5, 8, 5], [3, 0, 7, 5], [2, 0, 7, 5]], [[3, 0, 6, 7], [2, 0, 4, 6], [0, 4, 4, 6]], [[0, 5, 8, 7], [4, 0, 7, 5], [4, 0, 6, 5]], [[1, 0, 2, 8], [1, 0, 2, 7], [0, 2, 2, 7]], [[2, 0, 10, 3], [2, 0, 8, 2], [0, 3, 8, 2]], [[3, 0, 6, 7], [2, 0, 4, 6], [0, 4, 4, 6]], [[4, 0, 10, 8], [0, 4, 9, 7], [2, 0, 9, 5]], [[4, 0, 6, 6], [2, 0, 6, 4], [0, 3, 5, 3]], [[3, 0, 5, 5], [0, 2, 3, 5], [0, 2, 1, 5]], [[3, 0, 6, 3], [0, 2, 4, 3], [3, 0, 2, 3]], [[0, 4, 3, 6], [1, 0, 1, 5], [1, 0, 1, 4]], [[0, 3, 9, 9], [4, 0, 8, 7], [0, 1, 8, 5]], [[0, 4, 10, 8], [1, 0, 9, 3], [0, 4, 9, 2]], [[0, 4, 4, 5], [2, 0, 3, 3], [2, 0, 2, 3]], [[2, 0, 7, 6], [0, 4, 7, 5], [0, 4, 5, 2]], [[0, 4, 6, 5], [0, 2, 4, 5], [1, 0, 2, 4]], [[0, 3, 8, 8], [2, 0, 7, 8], [1, 0, 6, 6]], [[0, 4, 9, 10], [1, 0, 8, 9], [1, 0, 7, 9]], [[3, 0, 10, 9], [0, 3, 8, 8], [3, 0, 6, 8]], [[0, 5, 6, 2], [3, 0, 5, 2], [1, 0, 4, 2]], [[0, 2, 7, 5], [3, 0, 6, 5], [1, 0, 6, 5]], [[0, 4, 8, 7], [0, 2, 8, 7], [0, 2, 8, 6]], [[0, 4, 8, 2], [2, 0, 8, 2], [2, 0, 8, 1]], [[0, 2, 6, 8], [4, 0, 4, 8], [0, 2, 2, 6]], [[0, 2, 7, 8], [2, 0, 6, 8], [1, 0, 6, 8]], [[2, 0, 7, 6], [2, 0, 7, 5], [0, 5, 4, 4]], [[0, 1, 3, 8], [4, 0, 2, 7], [3, 0, 1, 6]], [[3, 0, 2, 3], [0, 1, 2, 2], [1, 0, 2, 2]], [[0, 5, 7, 6], [0, 4, 6, 5], [3, 0, 5, 1]], [[0, 4, 6, 7], [2, 0, 6, 6], [0, 4, 6, 4]], [[0, 3, 8, 6], [1, 0, 8, 4], [0, 3, 8, 2]], [[4, 0, 7, 10], [4, 0, 3, 8], [0, 4, 3, 7]], [[5, 0, 5, 4], [2, 0, 5, 2], [0, 2, 5, 2]], [[4, 0, 5, 8], [3, 0, 4, 4], [2, 0, 4, 2]], [[0, 2, 4, 6], [3, 0, 3, 5], [3, 0, 2, 3]], [[0, 3, 5, 6], [5, 0, 5, 4], [0, 2, 5, 3]], [[2, 0, 8, 6], [0, 4, 7, 5], [0, 4, 3, 4]], [[2, 0, 3, 9], [2, 0, 2, 6], [1, 0, 2, 4]], [[4, 0, 8, 6], [4, 0, 5, 4], [3, 0, 4, 4]], [[0, 3, 6, 8], [4, 0, 4, 8], [4, 0, 4, 5]], [[0, 3, 4, 6], [0, 2, 2, 4], [3, 0, 1, 2]], [[3, 0, 9, 8], [1, 0, 7, 4], [0, 3, 5, 1]], [[5, 0, 4, 7], [3, 0, 2, 4], [2, 0, 1, 2]], [[4, 0, 9, 5], [0, 2, 7, 3], [2, 0, 4, 2]], [[2, 0, 10, 5], [1, 0, 10, 3], [1, 0, 10, 2]], [[0, 3, 4, 1], [4, 0, 2, 2], [4, 0, 2, 1]], [[0, 1, 7, 9], [3, 0, 7, 5], [2, 0, 6, 3]], [[0, 4, 5, 6], [3, 0, 5, 3], [3, 0, 3, 3]], [[2, 0, 8, 8], [0, 2, 6, 8], [0, 2, 3, 8]], [[0, 5, 5, 9], [4, 0, 4, 8], [4, 0, 4, 7]], [[5, 0, 6, 8], [0, 1, 5, 8], [5, 0, 5, 6]], [[0, 1, 7, 7], [4, 0, 5, 7], [0, 1, 5, 7]], [[1, 0, 8, 5], [0, 3, 7, 2], [1, 0, 7, 1]], [[2, 0, 8, 6], [0, 3, 7, 5], [0, 3, 7, 4]], [[0, 4, 8, 2], [0, 3, 4, 2], [0, 2, 2, 2]], [[3, 0, 1, 7], [3, 0, 1, 5], [0, 4, 1, 2]], [[3, 0, 7, 9], [0, 4, 5, 6], [0, 4, 4, 5]], [[2, 0, 5, 10], [2, 0, 3, 8], [0, 1, 2, 6]], [[3, 0, 8, 8], [0, 4, 5, 7], [0, 4, 2, 6]], [[0, 5, 8, 8], [0, 3, 5, 7], [0, 3, 5, 6]], [[3, 0, 10, 4], [0, 3, 8, 3], [3, 0, 8, 1]], [[5, 0, 5, 3], [0, 4, 4, 3], [2, 0, 3, 3]], [[0, 3, 7, 7], [4, 0, 5, 7], [3, 0, 4, 4]], [[3, 0, 8, 10], [0, 3, 7, 9], [2, 0, 6, 8]], [[4, 0, 7, 5], [4, 0, 6, 4], [4, 0, 5, 2]], [[0, 5, 10, 2], [0, 2, 10, 2], [4, 0, 10, 2]], [[0, 3, 8, 7], [0, 3, 7, 6], [0, 1, 7, 5]], [[5, 0, 8, 7], [0, 3, 8, 5], [3, 0, 5, 4]], [[5, 0, 6, 10], [0, 3, 4, 6], [3, 0, 2, 5]], [[2, 0, 9, 7], [2, 0, 7, 6], [2, 0, 2, 3]], [[4, 0, 4, 10], [3, 0, 4, 10], [0, 3, 4, 10]], [[3, 0, 4, 9], [2, 0, 3, 9], [0, 2, 3, 7]], [[0, 5, 9, 4], [2, 0, 9, 3], [2, 0, 9, 2]], [[0, 1, 2, 6], [0, 1, 2, 4], [1, 0, 2, 4]], [[0, 2, 8, 7], [0, 2, 5, 6], [0, 2, 2, 4]], [[5, 0, 6, 6], [0, 3, 6, 5], [2, 0, 2, 3]], [[0, 2, 5, 10], [2, 0, 4, 6], [2, 0, 3, 6]], [[3, 0, 3, 5], [3, 0, 1, 5], [0, 3, 1, 5]], [[0, 5, 10, 6], [1, 0, 10, 6], [0, 3, 10, 2]], [[0, 0, 0, 0]]]
